NAME : Unnamed.375.tour
COMMENT : Length = 375
COMMENT : Found by LKH [Keld Helsgaun] Thu Oct 02 13:46:53 2014
TYPE : TOUR
DIMENSION : 23
TOUR_SECTION
1
2
23
3
18
16
5
14
6
4
15
11
9
8
13
10
12
7
21
22
19
20
17
-1
EOF
